<number of tasks>
50

<cycle time>
1000

<order strength>
0.596


<task times>
1 419
2 191
3 144
4 323
5 183
6 206
7 98
8 82
9 499
10 149
11 556
12 142
13 100
14 223
15 586
16 74
17 44
18 157
19 315
20 109
21 64
22 178
23 430
24 164
25 74
26 36
27 102
28 158
29 99
30 487
31 95
32 149
33 79
34 31
35 384
36 431
37 344
38 41
39 365
40 222
41 67
42 22
43 336
44 398
45 457
46 259
47 25
48 450
49 268
50 462

<precedence relations>
1,10
2,10
3,10
4,6
4,7
4,8
5,9
6,36
7,10
8,10
9,11
9,12
9,13
10,14
10,15
10,16
10,17
10,18
11,34
12,34
13,19
13,23
13,24
14,20
14,23
15,20
15,24
16,22
16,24
16,26
17,20
17,21
17,22
17,23
18,24
18,31
19,20
19,21
19,22
20,34
21,25
21,26
23,26
24,27
25,27
25,28
25,29
25,33
26,30
27,36
28,36
29,34
30,31
30,32
31,34
32,33
32,35
33,36
34,37
34,38
34,39
34,40
34,41
34,42
34,43
34,50
36,44
36,45
36,46
36,47
36,48
36,50
43,49

<end>
